\ENCODING=ISO-8859-1
\Problem name: 

Maximize
 obj1: u
Subject To
 c1: 5 x1 - 3 x2 - 3 x3 - 3 x4 - 3 x5 - u >= 0
 c2: - 4 x1 + 7 x2 - 4 x3 - 4 x4 - 4 x5 - u >= 0
 c3: - 2 x1 - 2 x2 + 3 x3 - 2 x4 - 2 x5 - u >= 0
 c4: - 7 x1 - 7 x2 - 7 x3 + 6 x4 - 7 x5 - u >= 0
 c5: - 5 x1 - 5 x2 - 5 x3 - 5 x4 + 4 x5 - u >= 0
 c6: x1 + x2 + x3 + x4 + x5  = 1
Bounds
 0 <= x1 <= 1
 0 <= x2 <= 1
 0 <= x3 <= 1
 0 <= x4 <= 1
 0 <= x5 <= 1
      u Free
End
